17	4	3
25	19	15	23	19	9	32	
0	0	0	0	0	6	8	10	2	6	2	3	2	3	4
2	0	6	8	9	6	9	3	10	8	8	3	10	11	17
4	0	2	0	0	3	7	8	5	7	10	2	5	17
5	4	0	0	0	3	1	1	9	8	2	3	6	7	16
6	4	0	0	0	5	5	9	8	3	5	3	9	12	17
250	0	0	0	5	8	9	3	8	1	8	3	8	9	14
225	0	7	4	0	10	6	7	2	5	4	1	17
75	1	0	9	3	10	8	1	8	2	8	1	17
25	6	9	0	5	7	4	9	8	2	6	2	17	17
250	0	7	7	10	9	7	1	8	4	3	1	13
100	6	9	0	0	2	1	2	5	9	2	2	17	17
225	10	1	0	9	2	8	8	9	9	3	1	17
8	5	0	7	0	3	9	10	3	6	1	2	15	17
8	10	6	0	0	1	3	5	9	10	7	2	15	17
8	0	7	8	10	5	9	3	5	6	7	1	17
9	10	0	5	4	8	8	7	9	2	6	1	17
0	0	0	0	0	1	4	3	8	2	2	0
